100 1315
534 890 267 890 80 720 320 240 560 356 89 640 720 240 80 800 356 623 240 400 445 320 80 720 890 534 267 623 640 320 712 480 560 560 356 890 720 712 801 712 445 712 178 160 89 89 712 240 801 534 400 890 89 801 267 400 178 80 240 178 400 400 400 640 801 400 178 400 240 240 400 712 160 534 720 178 800 480 80 445 356 640 240 240 80 800 320 534 160 89 160 240 720 160 240 356 534 320 712 160 
414 690 207 690 60 540 240 180 420 276 69 480 540 180 60 600 276 483 180 300 345 240 60 540 690 414 207 483 480 240 552 360 420 420 276 690 540 552 621 552 345 552 138 120 69 69 552 180 621 414 300 690 69 621 207 300 138 60 180 138 300 300 300 480 621 300 138 300 180 180 300 552 120 414 540 138 600 360 60 345 276 480 180 180 60 600 240 414 120 69 120 180 540 120 180 276 414 240 552 120 
